-48 -38 -46 -37 -1 0
-30 38 24 -37 -1 -37 -1 0
-30 36 38 -37 -1 0
-37 -1 0
36 38 -1 37 -1 0
28 38 -1 37 -1 0
40 12 -13 -38 -1 37 -1 0
37 -13 25 -38 -1 37 -1 0
37 -1 0
-1 0
-9 1 0
9 15 -40 24 -38 9 1 0
1 40 9 -41 -38 28 9 1 0
9 -41 -40 24 -38 9 1 0
1 9 -46 -41 -38 28 9 1 0
-29 15 -13 -41 -40 9 1 0
-29 38 -18 -41 24 9 1 0
40 9 36 15 9 1 0
38 9 -46 -41 24 28 9 1 0
-46 27 -18 31 9 1 0
38 -18 -46 -13 -41 31 9 1 0
1 38 6 -13 -41 9 1 0
9 1 0
1 0
0
